p cnf 14 64
-2 6 13 0
1 -4 -12 0
-2 -4 6 0
-9 -10 13 0
-4 5 7 0
1 5 -13 0
-9 13 -14 0
-1 -3 -10 0
2 -6 9 0
5 -11 -12 0
-2 -3 -12 0
-1 -2 14 0
-2 6 9 0
-7 9 -13 0
-7 -9 13 0
-3 -12 -13 0
-5 -11 -14 0
3 -8 -12 0
8 11 13 0
1 -5 11 0
1 -2 -14 0
2 8 12 0
-1 -5 -7 0
3 6 13 0
1 13 14 0
6 10 -12 0
-2 -4 11 0
-1 3 9 0
3 8 -13 0
5 9 -14 0
9 10 11 0
-1 -12 13 0
1 -5 14 0
10 11 -12 0
-2 7 -14 0
1 3 -11 0
-1 -7 14 0
2 10 -12 0
3 -4 -11 0
-1 -6 8 0
-5 -11 13 0
10 -11 -14 0
-3 4 5 0
5 -10 13 0
-3 -6 -7 0
1 12 13 0
-1 -4 11 0
12 -13 14 0
8 -10 13 0
-3 8 -9 0
-8 -11 13 0
-4 -5 8 0
1 11 -14 0
-6 13 14 0
-4 -5 7 0
-1 -2 -8 0
11 -12 13 0
-3 7 8 0
-2 4 9 0
-1 -5 13 0
-5 9 -13 0
6 8 -13 0
5 -10 14 0
-4 -5 -9 0
